************************************************************************
file with basedata            : EXPL4.BAS
initial value random generator: 2005704229
************************************************************************
projects                      :  1
jobs (incl. supersource/sink ):  16
horizon                       :  73
RESOURCES
  - renewable                 :  2   R
  - nonrenewable              :  2   N
  - doubly constrained        :  0   D
************************************************************************
PROJECT INFORMATION:
pronr.  #jobs rel.date duedate tardcost  MPM-Time
    1     14      0       43        2       43
************************************************************************
PRECEDENCE RELATIONS:
jobnr.    #modes  #successors   successors
   1        1          1           2
   2        1          3           3   4   6
   3        1          3           7   9  11
   4        1          3           5   8  13
   5        1          3           9  12  14
   6        1          1          11
   7        1          1           8
   8        1          1          12
   9        1          1          10
  10        1          1          15
  11        1          2          12  13
  12        1          1          15
  13        1          1          14
  14        1          1          15
  15        1          1          16
  16        1          0        
************************************************************************
REQUESTS/DURATIONS:
jobnr. mode duration  R 1  R 2  N 1  N 2
------------------------------------------------------------------------
  1      1     0       0    0    0    0
  2      1     6       7    0    4    3
  3      1     3       8    0    9    3
  4      1     1       2    0    7    2
  5      1     3       0    6    7    6
  6      1     9       3    0    3    6
  7      1     7       0    4    9   10
  8      1     5       1    0    8   10
  9      1     6       3    0    4    4
 10      1     3       0    4    2    5
 11      1     6       6    0    7    4
 12      1     2      10    0    6    5
 13      1     7       0    2    7    3
 14      1     6       0    2    4    4
 15      1     9       8    0    9    2
 16      1     0       0    0    0    0
************************************************************************
RESOURCEAVAILABILITIES:
  R 1  R 2  N 1  N 2
   11    7   86   67
************************************************************************
OVERCAPACITY COSTS:
1->0.5
2->0.5
MAX OVERCAPACITY:
1->5
2->3
